1 889 5
2 757 5
3 739 5
6 730 5
13 703 5
62 698 5
126 690 5
347 683 5
545 682 5



1 887 5
2 739 5
6 730 5
14 723 5
15 718 5
19 693 5
496 688 5
655 680 5



1 897 5
2 796 5
3 726 5
4 722 5
10 686 5
14 684 5
747 683 5



1 842 5
2 810 5
3 775 5
7 753 5
10 747 5
11 731 5
19 725 5
26 709 5
30 701 5
40 690 5
46 684 5
62 680 5



1 917 5
2 723 5
18 694 5
53 692 5
265 687 5
267 681 5



